(set-logic QF_S)
(set-option :produce-models true)

(declare-fun s4964 () String)
(declare-fun s1891 () String)
(declare-fun s4987 () String)
(declare-fun s9230 () String)
(declare-fun s118 () String)
(declare-fun s3248 () String)
(declare-fun s9544 () String)
(declare-fun s3599 () String)
(declare-fun s2234 () String)
(declare-fun s3761 () String)
(declare-fun s1659 () String)
(declare-fun s3794 () String)
(declare-fun s2925 () String)
(declare-fun s1894 () String)
(declare-fun s7766 () String)
(declare-fun s6004 () String)
(declare-fun s3245 () String)
(declare-fun s3632 () String)
(declare-fun s9107 () String)
(declare-fun s4683 () String)
(declare-fun s9706 () String)
(declare-fun s7888 () String)
(declare-fun s2922 () String)
(declare-fun s3020 () String)
(declare-fun s2309 () String)
(declare-fun s7819 () String)
(declare-fun s3196 () String)
(declare-fun s7822 () String)
(declare-fun s8196 () String)
(declare-fun s3440 () String)
(declare-fun s2862 () String)
(declare-fun s2098 () String)
(declare-fun s1599 () String)
(declare-fun s7231 () String)
(declare-fun s7942 () String)
(declare-fun s4786 () String)
(declare-fun s4686 () String)
(declare-fun s1662 () String)
(declare-fun s4507 () String)
(declare-fun s7769 () String)
(declare-fun s9917 () String)
(declare-fun s10018 () String)
(declare-fun s9054 () String)
(declare-fun s2859 () String)
(declare-fun s3076 () String)
(declare-fun s5214 () String)
(declare-fun s4365 () String)
(declare-fun s581 () String)
(declare-fun s5052 () String)
(declare-fun s4844 () String)
(declare-fun s9173 () String)
(declare-fun s9227 () String)
(declare-fun s9267 () String)
(declare-fun s9320 () String)
(declare-fun s5376 () String)
(declare-fun s5179 () String)
(declare-fun s6842 () String)
(declare-fun s5146 () String)
(declare-fun s9110 () String)
(declare-fun s9950 () String)
(declare-fun s7069 () String)
(declare-fun s1771 () String)
(declare-fun s1005 () String)
(declare-fun s9323 () String)
(declare-fun s5308 () String)
(declare-fun s5938 () String)
(declare-fun s6776 () String)
(declare-fun s647 () String)
(declare-fun s9479 () String)
(declare-fun s427 () String)
(declare-fun s1837 () String)
(declare-fun s8392 () String)
(declare-fun s5010 () String)
(declare-fun s4368 () String)
(declare-fun s3199 () String)
(declare-fun s9781 () String)
(declare-fun s9502 () String)
(declare-fun s4632 () String)
(declare-fun s7163 () String)
(declare-fun s3463 () String)
(declare-fun s4422 () String)
(declare-fun s8323 () String)
(declare-fun s8098 () String)
(declare-fun s4789 () String)
(declare-fun s3023 () String)
(declare-fun s8035 () String)
(declare-fun s6108 () String)
(declare-fun s758 () String)
(declare-fun s7027 () String)
(declare-fun s2140 () String)
(declare-fun s8561 () String)
(declare-fun s9010 () String)
(declare-fun s9638 () String)
(declare-fun s6942 () String)
(declare-fun s9440 () String)
(declare-fun s1978 () String)
(declare-fun s9013 () String)
(declare-fun s9443 () String)
(declare-fun s8154 () String)
(declare-fun s6247 () String)
(declare-fun s7976 () String)
(declare-fun s4463 () String)
(declare-fun s6945 () String)
(declare-fun s6839 () String)
(declare-fun s8101 () String)
(declare-fun s3667 () String)
(declare-fun s9985 () String)
(declare-fun s6773 () String)
(declare-fun s4566 () String)
(declare-fun s1713 () String)
(declare-fun s4466 () String)
(declare-fun s7979 () String)
(declare-fun s9264 () String)
(declare-fun s2031 () String)
(declare-fun s3320 () String)
(declare-fun s7196 () String)
(declare-fun s514 () String)
(declare-fun s7939 () String)
(declare-fun s2979 () String)
(declare-fun s6723 () String)
(declare-fun s2268 () String)
(declare-fun s6161 () String)
(declare-fun s3145 () String)
(declare-fun s822 () String)
(declare-fun s584 () String)
(declare-fun s3142 () String)
(declare-fun s1774 () String)
(declare-fun s9176 () String)
(declare-fun s8528 () String)
(declare-fun s4510 () String)
(declare-fun s1716 () String)
(declare-fun s4735 () String)
(declare-fun s4305 () String)
(declare-fun s4563 () String)
(declare-fun s5875 () String)
(declare-fun s9389 () String)
(declare-fun s9386 () String)
(declare-fun s6893 () String)
(declare-fun s8358 () String)
(declare-fun s4897 () String)
(declare-fun s5941 () String)
(declare-fun s1596 () String)
(declare-fun s3373 () String)
(declare-fun s6896 () String)
(declare-fun s4419 () String)
(declare-fun s8434 () String)
(declare-fun s5341 () String)
(declare-fun s4629 () String)
(declare-fun s6720 () String)
(declare-fun s9051 () String)
(declare-fun s7284 () String)
(declare-fun s6007 () String)
(declare-fun s517 () String)
(declare-fun s8290 () String)
(declare-fun s9823 () String)
(declare-fun s7885 () String)
(declare-fun s3079 () String)
(declare-fun s2976 () String)
(declare-fun s9671 () String)
(declare-fun s4302 () String)
(declare-fun s3505 () String)
(declare-fun s4732 () String)
(declare-fun s5878 () String)
(declare-fun s650 () String)
(declare-fun s430 () String)
(declare-fun s1840 () String)
(declare-fun s919 () String)
(declare-fun s8032 () String)

(assert (= s4368 s4365 ))
(assert (not (= s118 s4735 )))
(assert (= s2925 s2922 ))
(assert (not (= s118 s3079 )))
(assert (= s6945 s6942 ))
(assert (= s7942 s7939 ))
(assert (= s4686 s4683 ))
(assert (= s9781 s118 ))
(assert (= s517 s514 ))
(assert (not (= s7284 s118 )))
(assert (not (= s118 s9176 )))
(assert (= s9267 s9264 ))
(assert (not (= s3505 s118 )))
(assert (not (= s118 s6842 )))
(assert (not (= s2309 s118 )))
(assert (= s1840 s1837 ))
(assert (= s1894 s1891 ))
(assert (not (= s2031 s118 )))
(assert (not (= s118 s9443 )))
(assert (= s118 s9054 ))
(assert (not (= s118 s9389 )))
(assert (= s118 s4422 ))
(assert (= s4632 s4629 ))
(assert (not (= s7196 s118 )))
(assert (not (= s6161 s118 )))
(assert (not (= s8196 s118 )))
(assert (not (= s919 s118 )))
(assert (not (= s758 s118 )))
(assert (= s7027 s118 ))
(assert (= s6007 s6004 ))
(assert (not (= s6108 s118 )))
(assert (= s1774 s1771 ))
(assert (not (= s9706 s118 )))
(assert (not (= s118 s9230 )))
(assert (not (= s118 s3145 )))
(assert (= s4964 s118 ))
(assert (not (= s5308 s118 )))
(assert (= s8035 s8032 ))
(assert (= s4735 s4732 ))
(assert (= s6776 s6773 ))
(assert (not (= s8434 s118 )))
(assert (not (= s5214 s118 )))
(assert (not (= s9950 s118 )))
(assert (not (= s118 s5941 )))
(assert (not (= s3373 s118 )))
(assert (= s1662 s1659 ))
(assert (not (= s118 s1774 )))
(assert (not (= s9917 s118 )))
(assert (= s10018 s118 ))
(assert (= s118 s3023 ))
(assert (= s3145 s3142 ))
(assert (not (= s8528 s118 )))
(assert (not (= s118 s6896 )))
(assert (= s7822 s7819 ))
(assert (not (= s2268 s118 )))
(assert (not (= s118 s7942 )))
(assert (not (= s5179 s118 )))
(assert (not (= s118 s2925 )))
(assert (= s118 s6723 ))
(assert (= s4987 s118 ))
(assert (not (= s1978 s118 )))
(assert (= s6723 s6720 ))
(assert (= s4566 s4563 ))
(assert (= s118 "(" ))
(assert (not (= s118 s3199 )))
(assert (not (= s118 s517 )))
(assert (= s118 s4466 ))
(assert (= s430 s427 ))
(assert (= s3440 s118 ))
(assert (not (= s5146 s118 )))
(assert (= s8154 s118 ))
(assert (not (= s9823 s118 )))
(assert (not (= s118 s1840 )))
(assert (not (= s7163 s118 )))
(assert (not (= s3632 s118 )))
(assert (= s118 s2979 ))
(assert (= s6842 s6839 ))
(assert (= s6896 s6893 ))
(assert (not (= s5341 s118 )))
(assert (not (= s118 s4305 )))
(assert (not (= s118 s6776 )))
(assert (not (= s5376 s118 )))
(assert (= s5878 s5875 ))
(assert (= s9054 s9051 ))
(assert (= s9502 s118 ))
(assert (not (= s118 s7822 )))
(assert (not (= s118 s9110 )))
(assert (= s8392 s118 ))
(assert (not (= s118 s650 )))
(assert (not (= s4897 s118 )))
(assert (not (= s118 s4566 )))
(assert (not (= s118 s8035 )))
(assert (not (= s118 s3248 )))
(assert (= s9323 s9320 ))
(assert (= s4305 s4302 ))
(assert (not (= s8358 s118 )))
(assert (= s118 s9267 ))
(assert (= s650 s647 ))
(assert (not (= s3667 s118 )))
(assert (not (= s5052 s118 )))
(assert (not (= s118 s1894 )))
(assert (not (= s8290 s118 )))
(assert (= s3199 s3196 ))
(assert (= s9110 s9107 ))
(assert (= s9176 s9173 ))
(assert (= s9479 s118 ))
(assert (= s1716 s1713 ))
(assert (= s2979 s2976 ))
(assert (not (= s9671 s118 )))
(assert (= s4422 s4419 ))
(assert (= s118 s1716 ))
(assert (not (= s118 s6007 )))
(assert (not (= s9985 s118 )))
(assert (= s3079 s3076 ))
(assert (not (= s1005 s118 )))
(assert (= s3248 s3245 ))
(assert (= s9389 s9386 ))
(assert (not (= s118 s4632 )))
(assert (not (= s3794 s118 )))
(assert (= s2862 s2859 ))
(assert (= s118 s7979 ))
(assert (= s584 s581 ))
(assert (= s118 s4510 ))
(assert (not (= s118 s6945 )))
(assert (not (= s118 s1599 )))
(assert (not (= s822 s118 )))
(assert (= s4510 s4507 ))
(assert (not (= s3320 s118 )))
(assert (not (= s118 s7888 )))
(assert (not (= s7231 s118 )))
(assert (= s8101 s8098 ))
(assert (= s1599 s1596 ))
(assert (not (= s118 s9323 )))
(assert (= s3463 s118 ))
(assert (not (= s3761 s118 )))
(assert (not (= s118 s2862 )))
(assert (= s4789 s4786 ))
(assert (= s9443 s9440 ))
(assert (= s9230 s9227 ))
(assert (not (= s118 s4686 )))
(assert (not (= s118 s4368 )))
(assert (not (= s8323 s118 )))
(assert (= s5010 s118 ))
(assert (= s2098 s118 ))
(assert (not (= s3599 s118 )))
(assert (not (= s118 s4789 )))
(assert (not (= s2140 s118 )))
(assert (not (= s7069 s118 )))
(assert (= s7888 s7885 ))
(assert (= s9013 s9010 ))
(assert (= s7769 s7766 ))
(assert (= s3023 s3020 ))
(assert (not (= s6247 s118 )))
(assert (not (= s9544 s118 )))
(assert (not (= s4844 s118 )))
(assert (not (= s118 s584 )))
(assert (not (= s118 s8101 )))
(assert (= s118 s7769 ))
(assert (= s5941 s5938 ))
(assert (= s118 s9013 ))
(assert (= s7979 s7976 ))
(assert (not (= s118 s5878 )))
(assert (not (= s9638 s118 )))
(assert (not (= s118 s1662 )))
(assert (not (= s2234 s118 )))
(assert (= s4466 s4463 ))
(assert (not (= s118 s430 )))
(assert (not (= s8561 s118 )))


(check-sat)
(get-model)
